1087
1121
1056
1043
1043
1043
1043
1043
1043
1043
1090
1090
1065
989
880
880
1056
1056
1090
1048
1022
965
1009
908
908
908
949
950
950
950
862
862
950
950
1014
1039
1039
1039
1024
1024
941
941
898
898
898
898
898
958
896
896
896
896
896
896
896
1003
1003
1003
1003
1003
1000
981
981
974
1018
1033
910
910
910
910
980
927
993
936
917
917
917
917
917
835
835
917
917
966
948
948
948
961
961
961
855
855
855
855
855
911
911
911
911
911
